(declare-const term_to_project_onto0 Real)
(declare-const term_to_project_onto Real)
(declare-const term_to_project_onto2 Real)
(declare-const term_to_project_onto1 Real)
(declare-const tmp Int)
(assert (exists
         ((uninterp?1 Int) (|tmp'?2| Int) (|p'?3| Int) (|d'?4| Int)
            (|counter'?5| Int) (p?6 Int) (d?7 Int) (r?8 Int) (q?9 Int)
            (counter?10 Int) (B?11 Int) (A?12 Int))
         (and (<= (+ (- p?6) 1) 0) (<= (+ (- d?7) 1) 0) (<= (- r?8) 0)
                (= q?9 0) (<= (- counter?10) 0) (<= (+ (- B?11) 1) 0)
                (<= (- A?12) 0) (= (+ A?12 (- r?8)) 0) (= q?9 0)
                (<= (+ counter?10 -1) 0) (= q?9 0) (= (+ (- A?12) r?8) 0)
                (= (+ d?7 (- uninterp?1)) 0) (<= (+ (- r?8) d?7) 0)
                (= (+ |tmp'?2| (- counter?10)) 0) (= (+ |p'?3| (* -2 p?6)) 0)
                (= (+ |d'?4| (* -2 d?7)) 0)
                (= (+ |counter'?5| (- counter?10) -1) 0) (<= 1 uninterp?1)
                (<= p?6 uninterp?1) (<= B?11 uninterp?1)
                (= term_to_project_onto2 (+ |counter'?5| (- counter?10)))
                (= term_to_project_onto1 (+ |d'?4| (- d?7)))
                (= term_to_project_onto0 (+ |p'?3| (- p?6)))
                (= term_to_project_onto (+ |tmp'?2| (- tmp))))))
(check-sat)
